n=40;
demand=2;
horizon=40;
est=[0,25,28,18,25,18,25,37,17,0,32,34,17,31,6,10,30,15,21,3,25,7,27,34,33,18,39,16,3,28,17,3,25,35,0,31,33,36,4,24];
processing_time=[38,6,8,13,13,14,9,3,11,10,4,1,13,4,32,9,6,8,11,35,14,21,11,5,6,3,1,1,30,9,5,22,4,1,15,3,6,4,33,16];
lct=[40,38,36,40,40,33,40,40,35,32,37,35,30,40,39,34,38,29,33,38,40,37,38,39,39,35,40,28,35,37,26,26,34,38,32,38,40,40,37,40];
